0 0 0 0
0 1 2 0
0 2 0 0
0 3 2 1
0 4 0 1
0 5 0 5
0 6 0 5
0 7 0 5
0 8 0 7
0 9 0 7
0 10 1 7
0 11 2 9
0 12 1 7
0 13 0 8
0 14 0 7
0 15 0 8
0 16 0 10
0 17 0 9
0 18 1 12
0 19 0 12
0 20 0 10
0 21 0 12
0 22 1 12
0 23 0 16
0 24 0 15
0 25 1 17
0 26 0 23
0 27 0 15
0 28 0 21
0 29 0 25
0 30 2 15
0 31 0 29
